r=4; % radius of tesselated grid (const)
n=60; % how many numbers (const)
t=5; % number of tunnels (variable, adjust second array declaration)

snake = array2d(1..n,1..3,[
 %x,y,z, %n
  _,4,-1, %1
  _,_,_, %2
  _,_,_, %3
  _,_,_, %4
  _,_,_, %5
  _,_,_, %6
  0,2,_, %7
  _,_,_, %8
  _,_,_, %9
  _,_,_, %10
  0,1,_, %11
  _,_,_, %12
  _,2,0, %13
  _,_,_, %14
  _,_,_, %15
  _,_,_, %16
  _,_,_, %17
  _,_,_, %18
  _,1,2, %19
  _,_,_, %20
  _,_,_, %21
  _,0,3, %22
  _,_,_, %23
  _,_,_, %24
  _,-2,4, %25
  _,_,_, %26
  _,_,_, %27
  _,_,_, %28
  _,_,_, %29
  _,_,_, %30
  1,_,2, %31
  _,_,_, %32
  _,_,_, %33
  _,_,_, %34
  _,0,2, %35
  _,_,_, %36
  _,_,_, %37
  _,_,_, %38
  _,_,_, %39
  1,_,1, %40
  _,_,_, %41
  2,-4,_, %42
  _,_,_, %43
  _,_,_, %44
  _,_,_, %45
  _,_,_, %46
  4,-2,_, %47
  _,_,_, %48
  _,_,_, %49
  _,_,_, %50
  _,_,_, %51
  _,_,_, %52
  3,1,_, %53
  _,_,_, %54
  _,_,_, %55
  _,_,_, %56
  _,_,_, %57
  _,_,_, %58
  _,_,_, %59
  3,_,0  %60
]);

tunnels = array3d(1..t,1..2,1..3,[
    0,_,1, %coorinate couple for a tunnel
    1,_,0,
    
    4,0,_,
    4,-1,_,
    
    2,1,_,
    2,2,_,
    
    -1,2,_,
    -1,3,_,
    
    _,-1,3,
    _,-2,3

]);